NAME : gaussian_missing_edges_with_de_nei2_nei3_random89.6135.tour
COMMENT : Length = 6135
COMMENT : Found by LKH [Keld Helsgaun] Fri Jul 12 17:10:32 2024
TYPE : TOUR
DIMENSION : 89
TOUR_SECTION
1
22
47
88
60
86
53
10
69
34
67
63
14
83
57
31
25
26
16
78
64
20
84
39
3
45
55
77
52
36
85
71
4
11
80
89
59
61
9
38
49
68
23
8
24
40
42
2
65
44
30
35
19
21
41
33
17
28
79
54
29
27
56
15
37
81
51
48
18
66
43
46
82
5
32
74
13
50
73
75
12
70
72
7
62
87
6
58
76
-1
EOF
